p cnf 14 64
4 -9 -11 0
-3 10 13 0
4 7 -13 0
-5 -8 -9 0
7 -9 11 0
-3 -7 13 0
1 -5 -7 0
6 -8 13 0
2 -12 13 0
-5 -6 -7 0
-3 -6 -13 0
-6 -8 11 0
-4 -9 11 0
-5 -8 9 0
-2 10 12 0
4 6 -8 0
-1 -9 12 0
-1 -8 -11 0
1 9 -12 0
-2 -10 -11 0
3 4 8 0
-2 5 7 0
4 12 -14 0
-1 4 -11 0
6 -7 13 0
-2 -4 -12 0
-5 -8 -12 0
-6 10 -14 0
3 8 -12 0
-1 2 3 0
3 5 8 0
-7 -10 13 0
3 -13 14 0
-1 -3 -6 0
-1 -2 -6 0
8 -9 -13 0
4 5 -8 0
-4 -7 -10 0
-1 4 -9 0
7 -8 9 0
-1 3 7 0
4 7 -14 0
8 12 -13 0
4 6 -11 0
1 -6 11 0
-2 10 -14 0
-2 -5 10 0
2 8 12 0
-2 -10 -12 0
4 -5 -7 0
1 -4 -14 0
-8 10 -12 0
1 -2 -7 0
-4 12 13 0
4 5 -6 0
-4 9 -13 0
5 -10 -14 0
2 6 11 0
-5 -7 13 0
3 9 -13 0
-1 10 11 0
8 -11 -12 0
-7 -9 14 0
4 9 13 0
